%mem=25GB
%chk=mol67.chk

#RHF/STO-3G int=nobasistransform Symmetry=None 5D 7F Pop=NBO7Read 

mol67-NBO

0 1
Cl -.537724 -.961291 .000000
N .000000 .997037 .000000
O 1.142664 1.170335 .000000

$nbo BOAO SAO SPNAO DMPNAO DMNAO DMMO DMAO AOMO AOPNAO AONAO DETAIL ARCHIVE FILE=mol67.gen* AOINFO NPA $end
