%mem=25GB
%chk=LiH.chk

#OPT=VeryTight Int=UltraFine RHF/STO-3G Pop=NBO7Read

NBO-LiH

0 1
Li 0.000000 0.000000 0.000000
H  0.000000 0.000000 1.590000

$nbo BOAO SAO SPNAO DMPNAO DMNAO DMMO DMAO AOMO AOPNAO AONAO AONO SAONAO DETAIL ARCHIVE FILE=LiH AOINFO NPA $end
