%mem=25GB
%chk=mol45.chk

#RHF/STO-3G int=nobasistransform Symmetry=None 5D 7F Pop=NBO7Read 

mol45-NBO

0 1
Si .000000 .000000 .560846
O .000000 .000000 -.981480

$nbo BOAO SAO SPNAO DMPNAO DMNAO DMMO DMAO AOMO AOPNAO AONAO DETAIL ARCHIVE FILE=mol45.gen* AOINFO NPA $end
