%mem=25GB
%chk=mol122.chk

#RHF/6-31G* int=nobasistransform Symmetry=None 5D 7F Pop=NBO7Read 

mol122-NBO

0 1
C -.161594 -1.638625 .000000
C .584957 -.524961 .000000
C .000000 .782253 .000000
H -1.245203 -1.598169 .000000
H .305973 -2.616405 .000000
H 1.669863 -.572107 .000000
N -.467259 1.867811 .000000

$nbo BOAO SAO SPNAO DMPNAO DMNAO DMMO DMAO AOMO AOPNAO AONAO DETAIL ARCHIVE FILE=mol122.gen* AOINFO NPA $end
