%mem=25GB
%chk=a.chk

#RHF/4-31G Pop=NBO7Read

NBO-a

0 1
B	0.000076 -0.000000 0.000050
Li	-1.824832 0.000000 -1.217012
H	0.001914 -0.000000 1.163577
H	1.074962 -0.000000 -0.445390

$nbo BOAO SAO SPNAO DMPNAO DMNAO DMMO DMAO AOMO AOPNAO AONAO AONO DETAIL ARCHIVE FILE=inpGenNbo AOINFO NPA $end
