%mem=25GB
%chk=mol36.chk

#RHF/6-31G* int=nobasistransform Symmetry=None 5D 7F Pop=NBO7Read 

mol36-NBO

0 1
O .000000 .734058 -.052750
O .000000 -.734058 -.052750
H .839547 .880752 .422001
H -.839547 -.880752 .422001

$nbo BOAO SAO SPNAO DMPNAO DMNAO DMMO DMAO AOMO AOPNAO AONAO DETAIL ARCHIVE FILE=mol36.gen* AOINFO NPA $end
