%mem=25GB
%chk=mol113.chk

#RHF/6-31G* int=nobasistransform Symmetry=None 5D 7F Pop=NBO7Read 

mol113-NBO

0 1
C 1.168181 -.400382 .000000
C .000000 .559462 .000000
O -1.190083 -.227669 .000000
H -1.946623 .381525 .000000
H .042557 1.207508 .886933
H .042557 1.207508 -.886933
H 2.115891 .144800 .000000
H 1.128599 -1.037234 .885881
H 1.128599 -1.037234 -.885881

$nbo BOAO SAO SPNAO DMPNAO DMNAO DMMO DMAO AOMO AOPNAO AONAO DETAIL ARCHIVE FILE=mol113.gen* AOINFO NPA $end
