%mem=25GB
%chk=a.chk

#RHF/4-31G Pop=NBO7Read

NBO-a

0 1
C	-0.004656 0.008066 -0.014442
O	-0.695573 1.204768 -0.393961
H	0.017016 -0.029474 1.076161
H	1.028828 -0.008985 -0.376080
H	-0.506631 -0.895483 -0.376082
H	-0.682583 1.182270 -1.384739

$nbo BOAO SAO SPNAO DMPNAO DMNAO DMMO DMAO AOMO AOPNAO AONAO AONO DETAIL ARCHIVE FILE=inpGenNbo AOINFO NPA $end
