%mem=25GB
%chk=mol95.chk

#RHF/STO-3G int=nobasistransform Symmetry=None 5D 7F Pop=NBO7Read 

mol95-NBO

0 1
C .000000 .000000 .759945
Cl .000000 1.474200 -.215115
Cl .000000 -1.474200 -.215115
H -.894585 .000000 1.377127
H .894585 .000000 1.377127

$nbo BOAO SAO SPNAO DMPNAO DMNAO DMMO DMAO AOMO AOPNAO AONAO DETAIL ARCHIVE FILE=mol95.gen* AOINFO NPA $end
