%mem=25GB
%chk=mol70.chk

#RHF/6-31G* int=nobasistransform Symmetry=None 5D 7F Pop=NBO7Read 

mol70-NBO

0 1
O .000000 1.103810 -.228542
O .000000 .000000 .457084
O .000000 -1.103810 -.228542

$nbo BOAO SAO SPNAO DMPNAO DMNAO DMMO DMAO AOMO AOPNAO AONAO DETAIL ARCHIVE FILE=mol70.gen* AOINFO NPA $end
