%mem=25GB
%chk=a.chk

#RHF/6-31G* 5D 7F Pop=NBO7Read

NBO-a

0 1
Li 0.000000 0.000000 0.039594
 H 0.000000 0.000000 1.550406

$nbo BOAO SAO SPNAO DMPNAO DMNAO DMMO DMAO AOMO AOPNAO AONAO AONO DETAIL ARCHIVE FILE=inpGenNbo AOINFO NPA $end
