%mem=25GB
%chk=mol78.chk

#RHF/STO-3G int=nobasistransform Symmetry=None 5D 7F Pop=NBO7Read 

mol78-NBO

0 1
C .000000 .000000 .858299
C .000000 -.650545 -.498802
C .000000 .650545 -.498802
H .912438 .000000 1.456387
H -.912438 .000000 1.456387
H .000000 -1.584098 -1.038469
H .000000 1.584098 -1.038469

$nbo BOAO SAO SPNAO DMPNAO DMNAO DMMO DMAO AOMO AOPNAO AONAO DETAIL ARCHIVE FILE=mol78.gen* AOINFO NPA $end
