%mem=25GB
%chk=mol56.chk

#RHF/STO-3G int=nobasistransform Symmetry=None 5D 7F Pop=NBO7Read 

mol56-NBO

0 1
B .000000 .000000 .000000
Cl .000000 1.735352 .000000
Cl 1.502859 -.867676 .000000
Cl -1.502859 -.867676 .000000

$nbo BOAO SAO SPNAO DMPNAO DMNAO DMMO DMAO AOMO AOPNAO AONAO DETAIL ARCHIVE FILE=mol56.gen* AOINFO NPA $end
