%mem=25GB
%chk=a.chk

#RHF/6-31G* Pop=NBO7Read

NBO-a

0 1
C	0.034501 -0.059741 0.024991
Be	-0.761653 1.322867 -0.534058
H	0.057502 -0.100992 1.108648
H	1.063335 -0.098024 -0.316442
H	-0.448079 -0.968780 -0.317508
H	-1.369663 2.378741 -0.960994

$nbo BOAO SAO SPNAO DMPNAO DMNAO DMMO DMAO AOMO AOPNAO AONAO AONO DETAIL ARCHIVE FILE=inpGenNbo AOINFO NPA $end
