%mem=25GB
%chk=LiH.chk

#RHF/STO-3G nmr Pop=NBO7Read

NBO-LiH

0 1
Li  0.000000 0.000000   0.377703
H   0.000000 0.000000  -1.133108

$nbo BOAO SAO SPNAO DMPNAO DMNAO DMMO DMAO AOMO AOPNAO AONAO AONO SAONAO DETAIL ARCHIVE FILE=LiH AOINFO NPA ncs $end
