%mem=25GB
%chk=mol00.chk

#RHF/STO-3G int=nobasistransform Symmetry=None 5D 7F Pop=NBO7Read 

mol00-NBO

0 1
Li 0.000000 0.000000  0.410000
H  0.000000 0.000000 -1.230000

$nbo BOAO SAO SPNAO DMPNAO DMNAO DMMO DMAO AOMO AOPNAO AONAO DETAIL ARCHIVE FILE=mol00.gen* AOINFO NPA $end
