%mem=25GB
%chk=mol126.chk

#RHF/STO-3G int=nobasistransform Symmetry=None 5D 7F Pop=NBO7Read 

mol126-NBO

0 1
C .000000 .523878 .000000
C 1.486075 .716377 .000000
Cl -.452286 -1.217999 .000000
O -.845539 1.374940 .000000
H 1.701027 1.784793 .000000
H 1.917847 .240067 .882679
H 1.917847 .240067 -.882679

$nbo BOAO SAO SPNAO DMPNAO DMNAO DMMO DMAO AOMO AOPNAO AONAO DETAIL ARCHIVE FILE=mol126.gen* AOINFO NPA $end
