%mem=25GB
%chk=CH3Li.chk

#OPT=VeryTight Int=UltraFine RHF/STO-3G Pop=NBO7Read

NBO-CH3Li

0 1
 C     0.000000     0.000000     0.000000
 Li   -0.947052     1.640342    -0.669667
 H     0.029555    -0.051191     1.081386
 H     1.029393    -0.051190    -0.332594
 H    -0.470363    -0.917075    -0.332597

$nbo BOAO SAO SPNAO DMPNAO DMNAO DMMO DMAO AOMO AOPNAO AONAO AONO DETAIL ARCHIVE FILE=CH3Li AOINFO NPA $end
