%mem=25GB
%chk=mol04.chk

#RHF/6-31G* int=nobasistransform Symmetry=None 5D 7F Pop=NBO7Read 

mol04-NBO

0 1
C .000000 .000000 .174343
H .000000 .862232 -.523029
H .000000 -.862232 -.523029

$nbo BOAO SAO SPNAO DMPNAO DMNAO DMMO DMAO AOMO AOPNAO AONAO DETAIL ARCHIVE FILE=mol04.gen* AOINFO NPA $end
