%mem=25GB
%chk=mol110.chk

#RHF/STO-3G int=nobasistransform Symmetry=None 5D 7F Pop=NBO7Read 

mol110-NBO

0 1
C .000000 .731580 -.375674
O .000000 .000000 .860950
C .000000 -.731580 -.375674
H .919568 1.268821 -.594878
H -.919568 1.268821 -.594878
H -.919568 -1.268821 -.594878
H .919568 -1.268821 -.594878

$nbo BOAO SAO SPNAO DMPNAO DMNAO DMMO DMAO AOMO AOPNAO AONAO DETAIL ARCHIVE FILE=mol110.gen* AOINFO NPA $end
