%mem=25GB
%chk=CH3OH.chk

#OPT=VeryTight Int=UltraFine RHF/STO-3G Pop=NBO7Read

NBO-CH3OH

0 1
C     0.000000     0.000000     0.000000
O    -0.672694     1.165141    -0.475667
H     0.029555    -0.051191     1.081386
H     1.029393    -0.051190    -0.332594
H    -0.470363    -0.917075    -0.332597
H    -0.759490     1.315477    -1.409672

$nbo BOAO SAO SPNAO DMPNAO DMNAO DMMO DMAO AOMO AOPNAO AONAO AONO DETAIL ARCHIVE FILE=CH3OH AOINFO NPA $end
