%mem=25GB
%chk=mol31.chk

#RHF/STO-3G int=nobasistransform Symmetry=None 5D 7F Pop=NBO7Read 

mol31-NBO

0 1
C -.047131 .664389 .000000
O -.047131 -.758551 .000000
H -1.092995 .969785 .000000
H .878534 -1.048458 .000000
H .437145 1.080376 .891772
H .437145 1.080376 -.891772

$nbo BOAO SAO SPNAO DMPNAO DMNAO DMMO DMAO AOMO AOPNAO AONAO DETAIL ARCHIVE FILE=mol31.gen* AOINFO NPA $end
