%mem=25GB
%chk=mol51.chk

#RHF/6-31G* int=nobasistransform Symmetry=None 5D 7F Pop=NBO7Read 

mol51-NBO

0 1
C .000000 .000000 -1.121389
Cl .000000 .000000 .655951
H .000000 1.029318 -1.474280
H .891415 -.514659 -1.474280
H -.891415 -.514659 -1.474280

$nbo BOAO SAO SPNAO DMPNAO DMNAO DMMO DMAO AOMO AOPNAO AONAO DETAIL ARCHIVE FILE=mol51.gen* AOINFO NPA $end
