%mem=25GB
%chk=mol44.chk

#RHF/6-31G* int=nobasistransform Symmetry=None 5D 7F Pop=NBO7Read 

mol44-NBO

0 1
Na .000000 .000000 -1.451660
Cl .000000 .000000 .939310

$nbo BOAO SAO SPNAO DMPNAO DMNAO DMMO DMAO AOMO AOPNAO AONAO DETAIL ARCHIVE FILE=mol44.gen* AOINFO NPA $end
