%mem=25GB
%chk=mol41.chk

#RHF/6-31G* int=nobasistransform Symmetry=None 5D 7F Pop=NBO7Read 

mol41-NBO

0 1
P .000000 .000000 .966144
P .000000 .000000 -.966144

$nbo BOAO SAO SPNAO DMPNAO DMNAO DMMO DMAO AOMO AOPNAO AONAO DETAIL ARCHIVE FILE=mol41.gen* AOINFO NPA $end
