%mem=25GB
%chk=mol62.chk

#RHF/STO-3G int=nobasistransform Symmetry=None 5D 7F Pop=NBO7Read 

mol62-NBO

0 1
S .000000 .000000 1.561117
C .000000 .000000 .000000
S .000000 .000000 -1.561117

$nbo BOAO SAO SPNAO DMPNAO DMNAO DMMO DMAO AOMO AOPNAO AONAO DETAIL ARCHIVE FILE=mol62.gen* AOINFO NPA $end
