%mem=25GB
%chk=a.chk

#RHF/6-31G* Pop=NBO7Read

NBO-a

0 1
C	0.000001 0.000000 -0.000004
Li	-0.000000 -0.000000 2.008430
H	0.999597 0.000000 -0.416000
H	-0.499797 0.865676 -0.416001
H	-0.499797 -0.865676 -0.416001

$nbo BOAO SAO SPNAO DMPNAO DMNAO DMMO DMAO AOMO AOPNAO AONAO AONO DETAIL ARCHIVE FILE=inpGenNbo AOINFO NPA $end
