%mem=25GB
%chk=LiH.chk

#OPT=VeryTight Int=UltraFine RHF/6-31G* 5D 7F Pop=NBO7Read

NBO-HH

0 1
H  0.000000 0.000000 0.000000
H  0.000000 0.000000 1.400000

$nbo BOAO SAO SPNAO DMPNAO DMNAO DMMO DMAO AOMO AOPNAO AONAO AONO SAONAO DETAIL ARCHIVE FILE=HH AOINFO NPA $end
