%mem=25GB
%chk=mol135.chk

#RHF/STO-3G int=nobasistransform Symmetry=None 5D 7F Pop=NBO7Read 

mol135-NBO

0 1
H .000000 .000000 .368583
H .000000 .000000 -.368583

$nbo BOAO SAO SPNAO DMPNAO DMNAO DMMO DMAO AOMO AOPNAO AONAO DETAIL ARCHIVE FILE=mol135.gen* AOINFO NPA $end
