%mem=25GB
%chk=mol54.chk

#RHF/STO-3G int=nobasistransform Symmetry=None 5D 7F Pop=NBO7Read 

mol54-NBO

0 1
S .000000 .000000 .370268
O .000000 1.277617 -.370268
O .000000 -1.277617 -.370268

$nbo BOAO SAO SPNAO DMPNAO DMNAO DMMO DMAO AOMO AOPNAO AONAO DETAIL ARCHIVE FILE=mol54.gen* AOINFO NPA $end
