%mem=25GB
%chk=mol46.chk

#RHF/6-31G* int=nobasistransform Symmetry=None 5D 7F Pop=NBO7Read 

mol46-NBO

0 1
C .000000 .000000 -1.123382
S .000000 .000000 .421268

$nbo BOAO SAO SPNAO DMPNAO DMNAO DMMO DMAO AOMO AOPNAO AONAO DETAIL ARCHIVE FILE=mol46.gen* AOINFO NPA $end
