%mem=25GB
%chk=LiLi.chk

#OPT=VeryTight Int=UltraFine RHF/STO-3G Pop=NBO7Read

NBO-LiLi

0 1
Li  0.000000 0.000000 0.000000
Li  0.000000 0.000000 2.696000

$nbo BOAO SAO SPNAO DMPNAO DMNAO DMMO DMAO AOMO AOPNAO AONAO AONO DETAIL ARCHIVE FILE=LiLi AOINFO NPA $end
