%mem=25GB
%chk=a.chk

#RHF/6-31G* Pop=NBO7Read

NBO-a

0 1
Be	0.000000 0.000000 -0.000110
Li	0.000000 0.000000 2.383800
H	0.000000 0.000000 -1.299690

$nbo BOAO SAO SPNAO DMPNAO DMNAO DMMO DMAO AOMO AOPNAO AONAO AONO DETAIL ARCHIVE FILE=inpGenNbo AOINFO NPA $end
