%mem=25GB
%chk=mol39.chk

#RHF/STO-3G int=nobasistransform Symmetry=None 5D 7F Pop=NBO7Read 

mol39-NBO

0 1
Na .000000 .000000 1.576262
Na .000000 .000000 -1.576262

$nbo BOAO SAO SPNAO DMPNAO DMNAO DMMO DMAO AOMO AOPNAO AONAO DETAIL ARCHIVE FILE=mol39.gen* AOINFO NPA $end
