%mem=25GB
%chk=LiNH2.chk

#OPT=VeryTight Int=UltraFine RHF/STO-3G Pop=NBO7Read

NBO-LiNH2

0 1
 N     0.000000     0.000000     1.635000
Li     0.000000     0.000000     0.000000
 H     0.799040     0.000000     2.278593
 H    -0.799040     0.000000     2.278593

$nbo BOAO SAO SPNAO DMPNAO DMNAO DMMO DMAO AOMO AOPNAO AONAO AONO DETAIL ARCHIVE FILE=LiNH2 AOINFO NPA $end
