%mem=25GB
%chk=a.chk

#OPT=VeryTight Int=UltraFine RHF/6-31G* Pop=NBO7Read

NBO-a

0 1
H	0.000000 0.000000 0.000000
H	0.000000 0.000000 1.400000

$nbo BOAO SAO SPNAO DMPNAO DMNAO DMMO DMAO AOMO AOPNAO AONAO AONO DETAIL ARCHIVE FILE=inpGenNbo AOINFO NPA $end
