%mem=25GB
%chk=a.chk

#RHF/4-31G Pop=NBO7Read

NBO-a

0 1
$nbo	0.000000 0.000000 -0.000012
	0.000000 0.000000 1.407012

$nbo BOAO SAO SPNAO DMPNAO DMNAO DMMO DMAO AOMO AOPNAO AONAO AONO DETAIL ARCHIVE FILE=inpGenNbo AOINFO NPA $end
