%mem=25GB
%chk=mol103.chk

#RHF/STO-3G int=nobasistransform Symmetry=None 5D 7F Pop=NBO7Read 

mol103-NBO

0 1
C -.931209 -.083866 .000000
O -.711019 -1.278209 .000000
O .000000 .886841 .000000
H -1.928360 .374598 .000000
C 1.356899 .397287 .000000
H 1.980134 1.288164 .000000
H 1.541121 -.206172 .889397
H 1.541121 -.206172 -.889397

$nbo BOAO SAO SPNAO DMPNAO DMNAO DMMO DMAO AOMO AOPNAO AONAO DETAIL ARCHIVE FILE=mol103.gen* AOINFO NPA $end
