%mem=25GB
%chk=mol106.chk

#RHF/6-31G* int=nobasistransform Symmetry=None 5D 7F Pop=NBO7Read 

mol106-NBO

0 1
N .000000 .000000 1.875875
C .000000 .000000 .690573
C .000000 .000000 -.690573
N .000000 .000000 -1.875875

$nbo BOAO SAO SPNAO DMPNAO DMNAO DMMO DMAO AOMO AOPNAO AONAO DETAIL ARCHIVE FILE=mol106.gen* AOINFO NPA $end
