%mem=25GB
%chk=mol38.chk

#RHF/6-31G* int=nobasistransform Symmetry=None 5D 7F Pop=NBO7Read 

mol38-NBO

0 1
C .000000 .000000 .000000
O .000000 .000000 1.178658
O .000000 .000000 -1.178658

$nbo BOAO SAO SPNAO DMPNAO DMNAO DMMO DMAO AOMO AOPNAO AONAO DETAIL ARCHIVE FILE=mol38.gen* AOINFO NPA $end
