%mem=25GB
%chk=mol112.chk

#RHF/STO-3G int=nobasistransform Symmetry=None 5D 7F Pop=NBO7Read 

mol112-NBO

0 1
C .000000 .756430 .000000
C .000000 -.756430 .000000
O 1.046090 1.389916 .000000
H -.999940 1.228191 .000000
O -1.046090 -1.389916 .000000
H .999940 -1.228191 .000000

$nbo BOAO SAO SPNAO DMPNAO DMNAO DMMO DMAO AOMO AOPNAO AONAO DETAIL ARCHIVE FILE=mol112.gen* AOINFO NPA $end
