%mem=25GB
%chk=mol115.chk

#RHF/6-31G* int=nobasistransform Symmetry=None 5D 7F Pop=NBO7Read 

mol115-NBO

0 1
C .000000 -.739719 -.792334
S .000000 .000000 .863474
C .000000 .739719 -.792334
H -.913940 -1.250142 -1.076894
H .913940 -1.250142 -1.076894
H .913940 1.250142 -1.076894
H -.913940 1.250142 -1.076894

$nbo BOAO SAO SPNAO DMPNAO DMNAO DMMO DMAO AOMO AOPNAO AONAO DETAIL ARCHIVE FILE=mol115.gen* AOINFO NPA $end
