%mem=25GB
%chk=LiBeH.chk

#OPT=VeryTight Int=UltraFine RHF/STO-3G Pop=NBO7Read

NBO-LiBeH

0 1
Be     0.000000     0.000000     0.000000
Li     0.000000     0.000000     2.384000
 H     0.000000     0.000000    -1.300000

$nbo BOAO SAO SPNAO DMPNAO DMNAO DMMO DMAO AOMO AOPNAO AONAO AONO DETAIL ARCHIVE FILE=LiBeH AOINFO NPA $end
