%mem=25GB
%chk=mol132.chk

#RHF/STO-3G int=nobasistransform Symmetry=None 5D 7F Pop=NBO7Read 

mol132-NBO

0 1
S .000000 .000000 1.189753
C .000000 1.233876 -.001474
C .000000 -1.233876 -.001474
C .000000 .709173 -1.272322
C .000000 -.709173 -1.272322
H .000000 2.275343 .291984
H .000000 -2.275343 .291984
H .000000 1.321934 -2.167231
H .000000 -1.321934 -2.167231

$nbo BOAO SAO SPNAO DMPNAO DMNAO DMMO DMAO AOMO AOPNAO AONAO DETAIL ARCHIVE FILE=mol132.gen* AOINFO NPA $end
