%mem=25GB
%chk=mol86.chk

#RHF/STO-3G int=nobasistransform Symmetry=None 5D 7F Pop=NBO7Read 

mol86-NBO

0 1
C .000000 -.672762 .811217
C .000000 .672762 .811217
C .000000 -.781980 -.696648
C .000000 .781980 -.696648
H .000000 -1.422393 1.597763
H .000000 1.422393 1.597763
H -.889310 -1.239242 -1.142591
H .889310 -1.239242 -1.142591
H .889310 1.239242 -1.142591
H -.889310 1.239242 -1.142591

$nbo BOAO SAO SPNAO DMPNAO DMNAO DMMO DMAO AOMO AOPNAO AONAO DETAIL ARCHIVE FILE=mol86.gen* AOINFO NPA $end
