%mem=25GB
%chk=CH3CH3.chk

#OPT=VeryTight Int=UltraFine RHF/STO-3G Pop=NBO7Read

NBO-CH3CH3

0 1
 C     0.000000     0.000000     0.000000
 H     0.000000     0.000000     1.070000
 H     1.008807     0.000000    -0.356663
 H    -0.504401     0.873651    -0.356669
 C    -0.707105    -1.224745    -0.500003
 H    -1.715912    -1.224745    -0.143340
 H    -0.707104    -1.224743    -1.570003
 H    -0.202703    -2.098396    -0.143334

$nbo BOAO SAO SPNAO DMPNAO DMNAO DMMO DMAO AOMO AOPNAO AONAO AONO DETAIL ARCHIVE FILE=CH3CH3 AOINFO NPA $end
