%mem=25GB
%chk=mol24.chk

#RHF/STO-3G int=nobasistransform Symmetry=None 5D 7F Pop=NBO7Read 

mol24-NBO

0 1
C .000000 .000000 .667480
C .000000 .000000 -.667480
H .000000 .922832 1.237695
H .000000 -.922832 1.237695
H .000000 .922832 -1.237695
H .000000 -.922832 -1.237695

$nbo BOAO SAO SPNAO DMPNAO DMNAO DMMO DMAO AOMO AOPNAO AONAO DETAIL ARCHIVE FILE=mol24.gen* AOINFO NPA $end
