%mem=25GB
%chk=mol22.chk

#RHF/STO-3G int=nobasistransform Symmetry=None 5D 7F Pop=NBO7Read 

mol22-NBO

0 1
Li .000000 .000000 -1.174965
F .000000 .000000 .391655

$nbo BOAO SAO SPNAO DMPNAO DMNAO DMMO DMAO AOMO AOPNAO AONAO DETAIL ARCHIVE FILE=mol22.gen* AOINFO NPA $end
