%mem=25GB
%chk=mol11.chk

#RHF/6-31G* int=nobasistransform Symmetry=None 5D 7F Pop=NBO7Read 

mol11-NBO

0 1
O .000000 .000000 .119262
H .000000 .763239 -.477047
H .000000 -.763239 -.477047

$nbo BOAO SAO SPNAO DMPNAO DMNAO DMMO DMAO AOMO AOPNAO AONAO DETAIL ARCHIVE FILE=mol11.gen* AOINFO NPA $end
