%mem=25GB
%chk=mol19.chk

#RHF/6-31G* int=nobasistransform Symmetry=None 5D 7F Pop=NBO7Read 

mol19-NBO

0 1
S .000000 .000000 .102135
H .000000 .974269 -.817083
H .000000 -.974269 -.817083

$nbo BOAO SAO SPNAO DMPNAO DMNAO DMMO DMAO AOMO AOPNAO AONAO DETAIL ARCHIVE FILE=mol19.gen* AOINFO NPA $end
