%mem=25GB
%chk=a.chk

#RHF/6-31G* Pop=NBO7Read

NBO-a

0 1
C	0.008877 0.015375 0.006277
H	0.020819 0.036063 1.092059
H	1.036545 0.036063 -0.344387
H	-0.487038 0.915705 -0.344391
C	-0.715982 -1.240120 -0.506280
H	-1.743649 -1.260807 -0.155616
H	-0.727923 -1.260807 -1.592062
H	-0.220066 -2.140449 -0.155612

$nbo BOAO SAO SPNAO DMPNAO DMNAO DMMO DMAO AOMO AOPNAO AONAO AONO DETAIL ARCHIVE FILE=inpGenNbo AOINFO NPA $end
