%mem=25GB
%chk=mol109.chk

#RHF/6-31G* int=nobasistransform Symmetry=None 5D 7F Pop=NBO7Read 

mol109-NBO

0 1
C .000000 .000000 -1.219340
C .000000 .000000 .098920
H .000000 .938847 -1.753224
H .000000 -.938847 -1.753224
O .000000 .000000 1.278620

$nbo BOAO SAO SPNAO DMPNAO DMNAO DMMO DMAO AOMO AOPNAO AONAO DETAIL ARCHIVE FILE=mol109.gen* AOINFO NPA $end
