%mem=25GB
%chk=mol107.chk

#RHF/6-31G* int=nobasistransform Symmetry=None 5D 7F Pop=NBO7Read 

mol107-NBO

0 1
C -.027530 -.224702 1.204880
N -.027530 .592470 .000000
C -.027530 -.224702 -1.204880
H .791501 -.962742 1.248506
H .039598 .421182 2.083405
H -.972220 -.772987 1.261750
H .805303 1.178220 .000000
H .791501 -.962742 -1.248506
H .039598 .421182 -2.083405
H -.972220 -.772987 -1.261750

$nbo BOAO SAO SPNAO DMPNAO DMNAO DMMO DMAO AOMO AOPNAO AONAO DETAIL ARCHIVE FILE=mol107.gen* AOINFO NPA $end
