%mem=25GB
%chk=mol27.chk

#RHF/STO-3G int=nobasistransform Symmetry=None 5D 7F Pop=NBO7Read 

mol27-NBO

0 1
C .000000 .000000 -.511747
N .000000 .000000 .664461
H .000000 .000000 -1.580746

$nbo BOAO SAO SPNAO DMPNAO DMNAO DMMO DMAO AOMO AOPNAO AONAO DETAIL ARCHIVE FILE=mol27.gen* AOINFO NPA $end
